NAME : eilA76.50.739.tour
COMMENT : Length = 739
COMMENT : Found by LKH [Keld Helsgaun] Tue Dec 11 00:02:50 2018
TYPE : TOUR
DIMENSION : 81
TOUR_SECTION
1
35
53
47
9
55
15
60
20
36
81
13
41
45
33
51
19
56
26
32
40
10
18
80
27
73
59
11
39
67
66
12
54
8
68
77
7
17
25
57
43
65
42
44
2
74
34
64
24
50
4
52
79
5
31
49
37
21
71
61
72
70
38
16
58
14
28
78
69
3
75
29
63
23
62
22
48
6
30
46
76
-1
EOF
